Route 1: 0 12 52 53 88 83 7 69 70 49 0
Route 2: 0 5 84 16 63 62 21 72 75 94 0
Route 3: 0 19 91 89 24 37 74 17 0
Route 4: 0 2 26 71 39 32 55 33 98 46 79 0
Route 5: 0 18 68 93 29 27 36 73 85 50 0
Route 6: 0 59 64 43 58 78 30 82 61 0
Route 7: 0 66 3 86 31 14 6 22 96 57 0
Route 8: 0 81 38 11 47 34 54 65 76 15 20 90 0
Route 9: 0 9 51 35 44 99 28 56 0
Route 10: 0 4 67 23 97 87 42 1 80 40 60 8 0
Route 11: 0 41 45 92 100 10 25 0
Route 12: 0 95 13 48 77 0
